

TIME =   1.000e-01

Nodal Displacements

 Node          U1          U2          U3
    1   0.000e+00   0.000e+00   0.000e+00
    2  -6.000e-04   0.000e+00   0.000e+00
    3  -6.000e-04  -6.000e-04   0.000e+00
    4   0.000e+00  -6.000e-04   0.000e+00
    5   6.127e-19  -6.144e-19   2.000e-03
    6  -6.000e-04  -4.535e-20   2.000e-03
    7  -6.000e-04  -6.000e-04   2.000e-03
    8   0.000e+00  -6.000e-04   2.000e-03

Element Stress

        S11        S22        S33        S12        S23        S13        vonMises
Element     1
  4.547e-13   2.274e-13   4.000e+03  -3.053e-14  -3.161e-13   1.204e-13   4.000e+03
  5.684e-13   9.095e-13   4.000e+03  -4.170e-14  -3.959e-13  -3.660e-13   4.000e+03
 -4.547e-13  -4.547e-13   4.000e+03   1.746e-13  -1.227e-13   9.268e-14   4.000e+03
  1.137e-13   4.547e-13   4.000e+03  -7.877e-14  -2.025e-13  -7.769e-14   4.000e+03
 -5.684e-13  -2.274e-13   4.000e+03  -2.677e-13  -3.439e-14   1.611e-14   4.000e+03
 -9.095e-13  -9.095e-13   4.000e+03  -5.750e-14   2.122e-13  -4.703e-13   4.000e+03
 -1.137e-13   4.547e-13   4.000e+03  -6.255e-14  -3.103e-14   2.228e-13   4.000e+03
  0.000e+00   0.000e+00   4.000e+03  -9.457e-14   2.156e-13   5.246e-14   4.000e+03



TIME =   2.000e-01

Nodal Displacements

 Node          U1          U2          U3
    1   0.000e+00   0.000e+00   0.000e+00
    2  -1.200e-03   0.000e+00   0.000e+00
    3  -1.200e-03  -1.200e-03   0.000e+00
    4   0.000e+00  -1.200e-03   0.000e+00
    5   3.526e-19  -1.273e-18   4.000e-03
    6  -1.200e-03  -1.043e-18   4.000e-03
    7  -1.200e-03  -1.200e-03   4.000e-03
    8   3.049e-19  -1.200e-03   4.000e-03

Element Stress

        S11        S22        S33        S12        S23        S13        vonMises
Element     1
  9.095e-13   0.000e+00   8.000e+03  -3.089e-14  -6.253e-13   1.249e-13   8.000e+03
  2.274e-13   0.000e+00   8.000e+03   1.251e-13   3.529e-13   1.132e-13   8.000e+03
  9.095e-13   4.547e-13   8.000e+03   1.486e-13  -3.620e-13   7.411e-14   8.000e+03
  6.821e-13   4.547e-13   8.000e+03   3.205e-13   6.162e-13  -3.202e-13   8.000e+03
  1.137e-12   4.547e-13   8.000e+03  -3.149e-13  -6.034e-13  -9.135e-14   8.000e+03
  6.821e-13   1.364e-12   8.000e+03  -3.421e-14  -2.790e-13  -1.030e-13   8.000e+03
  1.137e-12   9.095e-13   8.000e+03  -1.355e-13  -3.450e-13  -4.346e-14   8.000e+03
  1.137e-12   1.819e-12   8.000e+03   1.612e-13  -2.060e-14  -4.378e-13   8.000e+03



TIME =   3.000e-01

Nodal Displacements

 Node          U1          U2          U3
    1   0.000e+00   0.000e+00   0.000e+00
    2  -1.800e-03   0.000e+00   0.000e+00
    3  -1.800e-03  -1.800e-03   0.000e+00
    4   0.000e+00  -1.800e-03   0.000e+00
    5   9.165e-19  -1.009e-18   6.000e-03
    6  -1.800e-03  -1.587e-19   6.000e-03
    7  -1.800e-03  -1.800e-03   6.000e-03
    8   3.049e-19  -1.800e-03   6.000e-03

Element Stress

        S11        S22        S33        S12        S23        S13        vonMises
Element     1
 -1.819e-12  -1.819e-12   1.200e+04   1.677e-14  -5.695e-13   2.356e-13   1.200e+04
 -1.364e-12  -9.095e-13   1.200e+04   1.320e-13  -1.567e-13  -4.094e-13   1.200e+04
  0.000e+00   0.000e+00   1.200e+04   4.580e-14  -2.707e-13   1.876e-13   1.200e+04
  4.547e-13   9.095e-13   1.200e+04   4.165e-14   1.421e-13  -3.920e-13   1.200e+04
 -2.728e-12  -3.638e-12   1.200e+04  -1.159e-13  -1.430e-13   1.551e-13   1.200e+04
 -2.274e-12  -2.728e-12   1.200e+04   2.109e-13   4.186e-13  -4.899e-13   1.200e+04
 -2.728e-12  -3.638e-12   1.200e+04  -8.682e-14  -5.231e-15   2.665e-13   1.200e+04
 -2.274e-12  -2.728e-12   1.200e+04   1.205e-13   5.564e-13  -3.131e-13   1.200e+04



TIME =   4.000e-01

Nodal Displacements

 Node          U1          U2          U3
    1   0.000e+00   0.000e+00   0.000e+00
    2  -2.400e-03   0.000e+00   0.000e+00
    3  -2.400e-03  -2.400e-03   0.000e+00
    4   0.000e+00  -2.400e-03   0.000e+00
    5   6.228e-19  -2.633e-19   8.000e-03
    6  -2.400e-03  -6.803e-20   8.000e-03
    7  -2.400e-03  -2.400e-03   8.000e-03
    8  -4.193e-19  -2.400e-03   8.000e-03

Element Stress

        S11        S22        S33        S12        S23        S13        vonMises
Element     1
  2.728e-12   1.819e-12   1.600e+04   3.560e-14  -3.192e-13   2.013e-13   1.600e+04
  9.095e-13   9.095e-13   1.600e+04  -4.647e-13  -7.855e-14   3.203e-15   1.600e+04
  9.095e-13   9.095e-13   1.600e+04   6.090e-13  -9.052e-14  -3.841e-14   1.600e+04
  9.095e-13   9.095e-13   1.600e+04  -2.764e-13   1.501e-13   3.881e-13   1.600e+04
  3.183e-12   3.638e-12   1.600e+04  -1.847e-13   6.647e-14   5.403e-14   1.600e+04
  1.364e-12   2.728e-12   1.600e+04  -6.164e-13   3.897e-13  -1.441e-13   1.600e+04
  1.364e-12   2.728e-12   1.600e+04   3.887e-13  -1.420e-13   1.843e-14   1.600e+04
  1.364e-12   2.728e-12   1.600e+04  -4.281e-13   1.812e-13   4.450e-13   1.600e+04



TIME =   5.000e-01

Nodal Displacements

 Node          U1          U2          U3
    1   0.000e+00   0.000e+00   0.000e+00
    2  -3.000e-03   0.000e+00   0.000e+00
    3  -3.000e-03  -3.000e-03   0.000e+00
    4   0.000e+00  -3.000e-03   0.000e+00
    5   5.111e-19  -9.215e-19   1.000e-02
    6  -3.000e-03  -2.494e-19   1.000e-02
    7  -3.000e-03  -3.000e-03   1.000e-02
    8  -3.812e-20  -3.000e-03   1.000e-02

Element Stress

        S11        S22        S33        S12        S23        S13        vonMises
Element     1
  0.000e+00  -9.095e-13   2.000e+04   5.171e-14  -7.639e-13  -1.276e-13   2.000e+04
  4.547e-13   9.095e-13   2.000e+04   3.736e-14  -1.589e-12  -1.543e-12   2.000e+04
 -1.819e-12  -1.819e-12   2.000e+04   3.637e-13  -4.773e-13   6.985e-14   2.000e+04
  4.547e-13   9.095e-13   2.000e+04   9.589e-16  -1.302e-12  -1.059e-13   2.000e+04
 -1.364e-12  -9.095e-13   2.000e+04   7.589e-14  -7.404e-14   8.319e-16   2.000e+04
 -1.364e-12  -9.095e-13   2.000e+04  -9.458e-14  -1.183e-13  -1.414e-12   2.000e+04
 -3.183e-12  -1.819e-12   2.000e+04   3.879e-13  -2.192e-13   1.047e-13   2.000e+04
 -1.364e-12  -9.095e-13   2.000e+04  -1.310e-13  -2.635e-13  -7.102e-14   2.000e+04



TIME =   6.000e-01

Nodal Displacements

 Node          U1          U2          U3
    1   0.000e+00   0.000e+00   0.000e+00
    2  -3.600e-03   0.000e+00   0.000e+00
    3  -3.600e-03  -3.600e-03   0.000e+00
    4   0.000e+00  -3.600e-03   0.000e+00
    5   1.540e-18   4.388e-20   1.200e-02
    6  -3.600e-03  -1.587e-19   1.200e-02
    7  -3.600e-03  -3.600e-03   1.200e-02
    8   4.193e-19  -3.600e-03   1.200e-02

Element Stress

        S11        S22        S33        S12        S23        S13        vonMises
Element     1
  1.819e-12   0.000e+00   2.400e+04  -2.964e-14  -5.553e-13   1.430e-13   2.400e+04
  2.728e-12   1.819e-12   2.400e+04  -8.002e-13  -9.449e-13  -2.072e-12   2.400e+04
  0.000e+00   0.000e+00   2.400e+04   5.130e-13  -2.822e-13   2.007e-13   2.400e+04
 -9.095e-13   0.000e+00   2.400e+04  -4.060e-13  -6.718e-13  -7.691e-14   2.400e+04
 -9.095e-13  -1.819e-12   2.400e+04  -2.779e-14   2.114e-13   2.283e-13   2.400e+04
 -9.095e-13  -1.819e-12   2.400e+04  -1.008e-12   2.010e-12  -1.987e-12   2.400e+04
  9.095e-13   1.819e-12   2.400e+04   5.148e-13  -1.845e-14   1.600e-13   2.400e+04
 -9.095e-13   0.000e+00   2.400e+04  -6.134e-13   1.780e-12  -1.175e-13   2.400e+04



TIME =   7.000e-01

Nodal Displacements

 Node          U1          U2          U3
    1   0.000e+00   0.000e+00   0.000e+00
    2  -4.200e-03   0.000e+00   0.000e+00
    3  -4.200e-03  -4.200e-03   0.000e+00
    4   0.000e+00  -4.200e-03   0.000e+00
    5   1.398e-18  -1.668e-18   1.400e-02
    6  -4.200e-03  -1.723e-18   1.400e-02
    7  -4.200e-03  -4.200e-03   1.400e-02
    8   1.182e-18  -4.200e-03   1.400e-02

Element Stress

        S11        S22        S33        S12        S23        S13        vonMises
Element     1
 -9.095e-13  -1.819e-12   2.800e+04   4.133e-14  -7.358e-13   1.057e-12   2.800e+04
 -9.095e-13  -1.819e-12   2.800e+04   9.278e-14   8.443e-14   3.810e-13   2.800e+04
  9.095e-13   1.819e-12   2.800e+04   6.219e-13  -7.355e-13   3.940e-13   2.800e+04
  9.095e-13   1.819e-12   2.800e+04   8.430e-13   8.477e-14  -4.262e-13   2.800e+04
  9.095e-13   0.000e+00   2.800e+04  -3.454e-13  -1.249e-12   1.046e-12   2.800e+04
  9.095e-13   0.000e+00   2.800e+04   6.045e-14  -9.893e-13   3.696e-13   2.800e+04
  9.095e-13   0.000e+00   2.800e+04   2.352e-13  -9.952e-13   5.285e-13   2.800e+04
  9.095e-13   0.000e+00   2.800e+04   8.107e-13  -7.358e-13  -2.918e-13   2.800e+04



TIME =   8.000e-01

Nodal Displacements

 Node          U1          U2          U3
    1   0.000e+00   0.000e+00   0.000e+00
    2  -4.800e-03   0.000e+00   0.000e+00
    3  -4.800e-03  -4.800e-03   0.000e+00
    4   0.000e+00  -4.800e-03   0.000e+00
    5  -2.137e-18  -7.899e-19   1.600e-02
    6  -4.800e-03   5.216e-19   1.600e-02
    7  -4.800e-03  -4.800e-03   1.600e-02
    8  -2.020e-18  -4.800e-03   1.600e-02

Element Stress

        S11        S22        S33        S12        S23        S13        vonMises
Element     1
  1.819e-12   1.819e-12   3.200e+04  -7.734e-14   1.400e-13  -8.242e-13   3.200e+04
 -1.819e-12   0.000e+00   3.200e+04   7.014e-13   1.503e-12   1.957e-12   3.200e+04
 -1.819e-12   0.000e+00   3.200e+04  -5.152e-13   5.974e-13  -1.393e-12   3.200e+04
  0.000e+00   0.000e+00   3.200e+04   4.942e-13   1.960e-12  -7.541e-13   3.200e+04
  4.547e-12   3.638e-12   3.200e+04  -5.489e-13   8.532e-14  -1.192e-12   3.200e+04
  1.819e-12   3.638e-12   3.200e+04   7.048e-13  -9.442e-13   1.589e-12   3.200e+04
 -2.728e-12  -1.819e-12   3.200e+04  -9.868e-13   8.359e-13  -1.389e-12   3.200e+04
  0.000e+00   0.000e+00   3.200e+04   4.976e-13  -1.936e-13  -7.508e-13   3.200e+04



TIME =   9.000e-01

Nodal Displacements

 Node          U1          U2          U3
    1   0.000e+00   0.000e+00   0.000e+00
    2  -5.400e-03   0.000e+00   0.000e+00
    3  -5.400e-03  -5.400e-03   0.000e+00
    4   0.000e+00  -5.400e-03   0.000e+00
    5   6.951e-19  -2.896e-18   1.800e-02
    6  -5.400e-03  -3.129e-18   1.800e-02
    7  -5.400e-03  -5.400e-03   1.800e-02
    8   1.067e-18  -5.400e-03   1.800e-02

Element Stress

        S11        S22        S33        S12        S23        S13        vonMises
Element     1
 -3.638e-12  -3.638e-12   3.600e+04   1.637e-13  -1.014e-12   5.164e-13   3.600e+04
 -9.095e-13  -1.819e-12   3.600e+04  -1.565e-13   1.559e-12  -3.344e-13   3.600e+04
  1.819e-12   0.000e+00   3.600e+04   5.759e-13  -1.064e-12   5.803e-13   3.600e+04
 -9.095e-13   1.819e-12   3.600e+04  -1.059e-13   1.509e-12   9.050e-15   3.600e+04
 -3.638e-12  -3.638e-12   3.600e+04   1.248e-13  -1.139e-12   8.737e-13   3.600e+04
 -9.095e-13  -1.819e-12   3.600e+04  -6.704e-13   1.296e-12   2.285e-14   3.600e+04
  1.819e-12   0.000e+00   3.600e+04   5.371e-13  -7.802e-13   5.668e-13   3.600e+04
 -9.095e-13   1.819e-12   3.600e+04  -6.198e-13   1.655e-12  -4.392e-15   3.600e+04



TIME =   1.000e+00

Nodal Displacements

 Node          U1          U2          U3
    1   0.000e+00   0.000e+00   0.000e+00
    2  -6.000e-03   0.000e+00   0.000e+00
    3  -6.000e-03  -6.000e-03   0.000e+00
    4   0.000e+00  -6.000e-03   0.000e+00
    5   4.009e-18   2.062e-18   2.000e-02
    6  -6.000e-03   1.587e-18   2.000e-02
    7  -6.000e-03  -6.000e-03   2.000e-02
    8   9.911e-19  -6.000e-03   2.000e-02

Element Stress

        S11        S22        S33        S12        S23        S13        vonMises
Element     1
  9.095e-13   3.638e-12   4.000e+04  -1.231e-13   4.182e-13   8.884e-13   4.000e+04
  4.547e-12   5.457e-12   4.000e+04  -1.694e-12  -3.234e-12  -3.944e-12   4.000e+04
  2.728e-12   1.819e-12   4.000e+04   1.009e-12   3.719e-13   8.172e-13   4.000e+04
  9.095e-13   1.819e-12   4.000e+04  -1.147e-12  -3.280e-12  -5.351e-13   4.000e+04
 -3.638e-12   0.000e+00   4.000e+04   4.029e-13   1.639e-12   1.206e-12   4.000e+04
 -9.095e-13   0.000e+00   4.000e+04  -7.533e-13   1.551e-12  -3.626e-12   4.000e+04
  1.819e-12   1.819e-12   4.000e+04   1.535e-12   6.735e-13   9.240e-13   4.000e+04
 -9.095e-13   0.000e+00   4.000e+04  -2.065e-13   5.850e-13  -4.282e-13   4.000e+04

