

TIME =   1.000e-01

Nodal Displacements

 Node          U1          U2          U3
    1   0.000e+00   0.000e+00   0.000e+00
    2  -6.000e-04   0.000e+00   0.000e+00
    3  -6.000e-04  -6.000e-04   0.000e+00
    4   0.000e+00  -6.000e-04   0.000e+00
    5   6.498e-20   9.654e-19   2.000e-03
    6  -6.000e-04   3.855e-19   2.000e-03
    7  -6.000e-04  -6.000e-04   2.000e-03
    8   2.668e-19  -6.000e-04   2.000e-03

Element Stress

        S11        S22        S33        S12        S23        S13        vonMises
Element     1
  4.547e-13   9.095e-13   4.000e+03   6.255e-14   4.040e-13  -5.213e-15   4.000e+03
  9.095e-13   9.095e-13   4.000e+03  -2.919e-13  -1.798e-13  -5.056e-13   4.000e+03
  0.000e+00   0.000e+00   4.000e+03   8.340e-14   3.857e-13   2.163e-13   4.000e+03
 -9.095e-13  -4.547e-13   4.000e+03  -2.919e-13  -1.981e-13   3.831e-13   4.000e+03
 -9.095e-13  -4.547e-13   4.000e+03   2.711e-13   3.571e-13   1.460e-13   4.000e+03
 -4.547e-13  -4.547e-13   4.000e+03  -3.336e-13   4.405e-13  -3.545e-13   4.000e+03
  0.000e+00   0.000e+00   4.000e+03   2.919e-13   3.128e-13   1.355e-13   4.000e+03
 -9.095e-13  -4.547e-13   4.000e+03  -3.336e-13   3.962e-13   3.023e-13   4.000e+03



TIME =   2.000e-01

Nodal Displacements

 Node          U1          U2          U3
    1   0.000e+00   0.000e+00   0.000e+00
    2  -1.200e-03   0.000e+00   0.000e+00
    3  -1.200e-03  -1.200e-03   0.000e+00
    4   0.000e+00  -1.200e-03   0.000e+00
    5   8.085e-21   9.215e-19   4.000e-03
    6  -1.200e-03   2.948e-19   4.000e-03
    7  -1.200e-03  -1.200e-03   4.000e-03
    8   2.668e-19  -1.200e-03   4.000e-03

Element Stress

        S11        S22        S33        S12        S23        S13        vonMises
Element     1
  9.095e-13   1.819e-12   8.000e+03  -4.170e-14   3.440e-13  -1.407e-13   8.000e+03
  1.819e-12   1.819e-12   8.000e+03  -2.502e-13  -2.398e-13  -7.245e-13   8.000e+03
  9.095e-13   9.095e-13   8.000e+03   0.000e+00   3.128e-13   1.824e-13   8.000e+03
  9.095e-13   9.095e-13   8.000e+03  -2.919e-13  -2.711e-13   3.075e-13   8.000e+03
  0.000e+00   9.095e-13   8.000e+03   1.251e-13   3.545e-13   0.000e+00   8.000e+03
  9.095e-13   9.095e-13   8.000e+03  -2.919e-13   4.796e-13  -5.838e-13   8.000e+03
  9.095e-13   9.095e-13   8.000e+03   1.668e-13   2.711e-13   1.460e-13   8.000e+03
  9.095e-13   9.095e-13   8.000e+03  -3.336e-13   3.962e-13   2.711e-13   8.000e+03



TIME =   3.000e-01

Nodal Displacements

 Node          U1          U2          U3
    1   0.000e+00   0.000e+00   0.000e+00
    2  -1.800e-03   0.000e+00   0.000e+00
    3  -1.800e-03  -1.800e-03   0.000e+00
    4   0.000e+00  -1.800e-03   0.000e+00
    5  -1.280e-19   7.021e-19   6.000e-03
    6  -1.800e-03   0.000e+00   6.000e-03
    7  -1.800e-03  -1.800e-03   6.000e-03
    8   3.049e-19  -1.800e-03   6.000e-03

Element Stress

        S11        S22        S33        S12        S23        S13        vonMises
Element     1
 -9.095e-13   0.000e+00   1.200e+04   4.170e-14   1.877e-13  -2.502e-13   1.200e+04
 -9.095e-13   0.000e+00   1.200e+04  -3.753e-13   1.043e-13  -3.336e-13   1.200e+04
 -1.819e-12  -9.095e-13   1.200e+04   1.251e-13   2.502e-13   3.232e-13   1.200e+04
 -1.819e-12  -9.095e-13   1.200e+04  -5.421e-13   1.668e-13   7.402e-13   1.200e+04
 -1.819e-12  -9.095e-13   1.200e+04   2.502e-13   2.815e-13  -1.668e-13   1.200e+04
 -2.728e-12  -2.728e-12   1.200e+04  -5.004e-13   6.985e-13  -2.502e-13   1.200e+04
 -9.095e-13   0.000e+00   1.200e+04   3.336e-13   4.170e-14   0.000e+00   1.200e+04
 -1.819e-12  -1.819e-12   1.200e+04  -6.672e-13   4.587e-13   4.170e-13   1.200e+04



TIME =   4.000e-01

Nodal Displacements

 Node          U1          U2          U3
    1   0.000e+00   0.000e+00   0.000e+00
    2  -2.400e-03   0.000e+00   0.000e+00
    3  -2.400e-03  -2.400e-03   0.000e+00
    4   0.000e+00  -2.400e-03   0.000e+00
    5  -8.280e-19   2.194e-19   8.000e-03
    6  -2.400e-03  -7.030e-19   8.000e-03
    7  -2.400e-03  -2.400e-03   8.000e-03
    8   7.624e-20  -2.400e-03   8.000e-03

Element Stress

        S11        S22        S33        S12        S23        S13        vonMises
Element     1
  0.000e+00   0.000e+00   1.600e+04   0.000e+00   1.043e-13  -3.128e-13   1.600e+04
  0.000e+00   0.000e+00   1.600e+04  -8.340e-14   3.545e-13  -6.255e-14   1.600e+04
  3.638e-12   3.638e-12   1.600e+04  -1.668e-13   1.251e-13   2.606e-13   1.600e+04
  0.000e+00   1.819e-12   1.600e+04  -8.340e-14   3.753e-13   1.762e-12   1.600e+04
  1.819e-12   1.819e-12   1.600e+04   0.000e+00   2.085e-13  -4.170e-14   1.600e+04
  3.638e-12   3.638e-12   1.600e+04  -8.340e-13   1.710e-12   2.085e-13   1.600e+04
  3.638e-12   3.638e-12   1.600e+04  -1.668e-13   4.170e-13  -1.251e-13   1.600e+04
  1.819e-12   3.638e-12   1.600e+04  -8.340e-13   1.918e-12   1.376e-12   1.600e+04



TIME =   5.000e-01

Nodal Displacements

 Node          U1          U2          U3
    1   0.000e+00   0.000e+00   0.000e+00
    2  -3.000e-03   0.000e+00   0.000e+00
    3  -3.000e-03  -3.000e-03   0.000e+00
    4   0.000e+00  -3.000e-03   0.000e+00
    5   3.661e-20  -6.582e-19   1.000e-02
    6  -3.000e-03  -1.066e-18   1.000e-02
    7  -3.000e-03  -3.000e-03   1.000e-02
    8   9.529e-19  -3.000e-03   1.000e-02

Element Stress

        S11        S22        S33        S12        S23        S13        vonMises
Element     1
 -1.819e-12  -1.819e-12   2.000e+04   8.340e-14  -3.753e-13  -2.711e-13   2.000e+04
  0.000e+00  -1.819e-12   2.000e+04   8.340e-14  -5.421e-13  -1.772e-12   2.000e+04
  0.000e+00   0.000e+00   2.000e+04   3.336e-13  -1.668e-13   4.170e-13   2.000e+04
 -1.819e-12  -1.819e-12   2.000e+04   0.000e+00  -3.336e-13   5.838e-13   2.000e+04
 -3.638e-12  -3.638e-12   2.000e+04   8.340e-14  -3.336e-13   8.340e-14   2.000e+04
 -1.819e-12  -3.638e-12   2.000e+04  -5.838e-13   1.168e-12  -1.418e-12   2.000e+04
 -1.819e-12  -1.819e-12   2.000e+04   3.336e-13  -5.004e-13   3.336e-13   2.000e+04
 -3.638e-12  -3.638e-12   2.000e+04  -6.672e-13   1.001e-12   5.004e-13   2.000e+04



TIME =   6.000e-01

Nodal Displacements

 Node          U1          U2          U3
    1   0.000e+00   0.000e+00   0.000e+00
    2  -3.600e-03   0.000e+00   0.000e+00
    3  -3.600e-03  -3.600e-03   0.000e+00
    4   0.000e+00  -3.600e-03   0.000e+00
    5   8.239e-19   9.215e-19   1.200e-02
    6  -3.600e-03   1.814e-19   1.200e-02
    7  -3.600e-03  -3.600e-03   1.200e-02
    8  -2.668e-19  -3.600e-03   1.200e-02

Element Stress

        S11        S22        S33        S12        S23        S13        vonMises
Element     1
  0.000e+00   0.000e+00   2.400e+04   0.000e+00  -2.502e-13  -1.043e-13   2.400e+04
  3.638e-12   3.638e-12   2.400e+04  -1.084e-12  -2.585e-12  -2.106e-12   2.400e+04
 -3.638e-12  -3.638e-12   2.400e+04   1.168e-12   3.336e-13   5.004e-13   2.400e+04
  0.000e+00   0.000e+00   2.400e+04  -7.506e-13  -2.002e-12   2.002e-12   2.400e+04
  0.000e+00   0.000e+00   2.400e+04   1.668e-13   3.545e-13   8.340e-14   2.400e+04
  0.000e+00   0.000e+00   2.400e+04  -1.001e-12   1.522e-12  -1.918e-12   2.400e+04
  1.819e-12   1.819e-12   2.400e+04   1.334e-12   1.668e-13   6.672e-13   2.400e+04
  1.819e-12   1.819e-12   2.400e+04  -6.672e-13   1.334e-12   2.168e-12   2.400e+04



TIME =   7.000e-01

Nodal Displacements

 Node          U1          U2          U3
    1   0.000e+00   0.000e+00   0.000e+00
    2  -4.200e-03   0.000e+00   0.000e+00
    3  -4.200e-03  -4.200e-03   0.000e+00
    4   0.000e+00  -4.200e-03   0.000e+00
    5  -6.147e-19   1.185e-18   1.400e-02
    6  -4.200e-03   7.257e-19   1.400e-02
    7  -4.200e-03  -4.200e-03   1.400e-02
    8  -4.574e-19  -4.200e-03   1.400e-02

Element Stress

        S11        S22        S33        S12        S23        S13        vonMises
Element     1
  1.819e-12   1.819e-12   2.800e+04  -2.502e-13   7.089e-13  -1.668e-13   2.800e+04
  1.819e-12   1.819e-12   2.800e+04  -1.668e-13   7.089e-13  -5.004e-13   2.800e+04
  1.819e-12   1.819e-12   2.800e+04  -1.001e-12   3.336e-13  -4.170e-13   2.800e+04
  1.819e-12   1.819e-12   2.800e+04  -1.668e-13   3.336e-13  -4.170e-13   2.800e+04
  1.819e-12   1.819e-12   2.800e+04  -2.502e-13   3.545e-13  -5.004e-13   2.800e+04
  1.819e-12   1.819e-12   2.800e+04  -3.336e-13   6.881e-13  -8.340e-13   2.800e+04
  1.819e-12   1.819e-12   2.800e+04  -1.001e-12   7.506e-13  -8.340e-13   2.800e+04
  1.819e-12   1.819e-12   2.800e+04  -3.336e-13   1.084e-12  -8.340e-13   2.800e+04



TIME =   8.000e-01

Nodal Displacements

 Node          U1          U2          U3
    1   0.000e+00   0.000e+00   0.000e+00
    2  -4.800e-03   0.000e+00   0.000e+00
    3  -4.800e-03  -4.800e-03   0.000e+00
    4   0.000e+00  -4.800e-03   0.000e+00
    5  -1.839e-18   5.266e-19   1.600e-02
    6  -4.800e-03  -2.268e-19   1.600e-02
    7  -4.800e-03  -4.800e-03   1.600e-02
    8  -7.624e-20  -4.800e-03   1.600e-02

Element Stress

        S11        S22        S33        S12        S23        S13        vonMises
Element     1
 -3.638e-12  -3.638e-12   3.200e+04   1.668e-13   2.294e-13  -7.715e-13   3.200e+04
 -3.638e-12  -3.638e-12   3.200e+04   3.336e-13  -4.379e-13   2.294e-13   3.200e+04
 -3.638e-12  -3.638e-12   3.200e+04  -3.336e-13  -8.340e-14  -5.630e-13   3.200e+04
 -7.276e-12  -7.276e-12   3.200e+04  -3.336e-13  -7.506e-13   1.043e-13   3.200e+04
  3.638e-12   3.638e-12   3.200e+04   1.668e-13  -5.213e-13  -8.340e-13   3.200e+04
  0.000e+00   0.000e+00   3.200e+04   0.000e+00  -1.522e-12   1.668e-13   3.200e+04
 -3.638e-12  -3.638e-12   3.200e+04  -3.336e-13  -1.001e-12  -1.168e-12   3.200e+04
 -7.276e-12  -7.276e-12   3.200e+04  -6.672e-13  -2.002e-12  -5.004e-13   3.200e+04



TIME =   9.000e-01

Nodal Displacements

 Node          U1          U2          U3
    1   0.000e+00   0.000e+00   0.000e+00
    2  -5.400e-03   0.000e+00   0.000e+00
    3  -5.400e-03  -5.400e-03   0.000e+00
    4   0.000e+00  -5.400e-03   0.000e+00
    5   2.303e-18  -1.141e-18   1.800e-02
    6  -5.400e-03  -1.746e-18   1.800e-02
    7  -5.400e-03  -5.400e-03   1.800e-02
    8   2.783e-18  -5.400e-03   1.800e-02

Element Stress

        S11        S22        S33        S12        S23        S13        vonMises
Element     1
  0.000e+00   0.000e+00   3.600e+04   0.000e+00  -6.464e-13   9.591e-13   3.600e+04
  0.000e+00   0.000e+00   3.600e+04  -1.668e-13   3.545e-13  -2.043e-12   3.600e+04
  3.638e-12   3.638e-12   3.600e+04   1.668e-13  -9.174e-13   1.126e-12   3.600e+04
  3.638e-12   3.638e-12   3.600e+04  -5.004e-13   8.340e-14  -1.877e-12   3.600e+04
  0.000e+00   0.000e+00   3.600e+04   5.004e-13  -7.923e-13   1.334e-12   3.600e+04
  0.000e+00   0.000e+00   3.600e+04  -3.336e-13   2.085e-13  -1.668e-12   3.600e+04
  0.000e+00   0.000e+00   3.600e+04   6.672e-13  -7.506e-13   1.084e-12   3.600e+04
  0.000e+00   0.000e+00   3.600e+04  -6.672e-13   2.502e-13  -1.918e-12   3.600e+04



TIME =   1.000e+00

Nodal Displacements

 Node          U1          U2          U3
    1   0.000e+00   0.000e+00   0.000e+00
    2  -6.000e-03   0.000e+00   0.000e+00
    3  -6.000e-03  -6.000e-03   0.000e+00
    4   0.000e+00  -6.000e-03   0.000e+00
    5   1.625e-18   1.711e-18   2.000e-02
    6  -6.000e-03   2.948e-19   2.000e-02
    7  -6.000e-03  -6.000e-03   2.000e-02
    8   2.135e-18  -6.000e-03   2.000e-02

Element Stress

        S11        S22        S33        S12        S23        S13        vonMises
Element     1
  0.000e+00   0.000e+00   4.000e+04   0.000e+00   5.421e-13   1.251e-13   4.000e+04
  3.638e-12   3.638e-12   4.000e+04  -3.336e-13  -1.460e-12  -2.544e-12   4.000e+04
  3.638e-12   3.638e-12   4.000e+04   3.336e-13   6.672e-13   1.126e-12   4.000e+04
  0.000e+00   0.000e+00   4.000e+04  -3.336e-13  -1.334e-12   1.460e-12   4.000e+04
 -3.638e-12  -3.638e-12   4.000e+04   3.336e-13   8.340e-13   6.672e-13   4.000e+04
  0.000e+00   0.000e+00   4.000e+04  -6.672e-13   1.835e-12  -2.002e-12   4.000e+04
  0.000e+00   0.000e+00   4.000e+04   6.672e-13   1.334e-12   6.672e-13   4.000e+04
 -3.638e-12  -3.638e-12   4.000e+04  -6.672e-13   2.335e-12   1.001e-12   4.000e+04

