

TIME =   5.000e-02

Nodal Displacements

 Node          U1          U2          U3
    1  -1.509e-16  -6.636e-17  -3.022e-17
    2   2.500e-01  -6.627e-15  -3.418e-17
    3   2.500e-01  -1.056e-01  -4.016e-17
    4   3.746e-17  -1.056e-01  -7.023e-17
    5   8.752e-17  -6.694e-18  -1.056e-01
    6   2.500e-01  -2.890e-17  -1.056e-01
    7   2.500e-01  -1.056e-01  -1.056e-01
    8   0.000e+00  -1.056e-01  -1.056e-01

Element Stress

        S11        S22        S33        S12        S23        S13        vonMises
Element     1
  9.370e+01   1.073e-09   1.073e-09  -5.112e-13   3.463e-13  -1.411e-14   9.370e+01
  9.370e+01   1.073e-09   1.073e-09  -1.248e-13   3.316e-13  -1.209e-13   9.370e+01
  9.370e+01   1.073e-09   1.073e-09  -4.048e-13   3.452e-13  -3.013e-14   9.370e+01
  9.370e+01   1.073e-09   1.073e-09  -3.370e-14   3.306e-13  -1.318e-13   9.370e+01
  9.370e+01   1.073e-09   1.073e-09  -5.134e-13   1.282e-12  -1.971e-14   9.370e+01
  9.370e+01  -1.703e-09  -1.703e-09  -1.174e-13   1.279e-12  -1.265e-13   9.370e+01
  9.370e+01   1.073e-09   1.073e-09  -4.070e-13   1.245e-12  -3.093e-14   9.370e+01
  9.370e+01  -1.703e-09  -1.703e-09  -3.051e-14   1.242e-12  -1.326e-13   9.370e+01



TIME =   1.000e-01

Nodal Displacements

 Node          U1          U2          U3
    1  -1.500e-16  -1.598e-16  -6.351e-18
    2   5.000e-01  -2.297e-14  -5.383e-17
    3   5.000e-01  -1.835e-01   3.223e-17
    4  -1.019e-16  -1.835e-01  -5.410e-17
    5  -1.048e-16  -2.466e-17  -1.835e-01
    6   5.000e-01  -2.346e-17  -1.835e-01
    7   5.000e-01  -1.835e-01  -1.835e-01
    8   0.000e+00  -1.835e-01  -1.835e-01

Element Stress

        S11        S22        S33        S12        S23        S13        vonMises
Element     1
  1.314e+02   9.130e-07   9.130e-07  -1.153e-12   1.537e-12  -6.439e-14   1.314e+02
  1.314e+02   9.130e-07   9.130e-07  -2.582e-13   1.575e-12  -2.378e-13   1.314e+02
  1.314e+02   9.096e-07   9.096e-07  -9.739e-13   1.571e-12  -4.938e-14   1.314e+02
  1.314e+02   9.130e-07   9.130e-07  -9.086e-14   1.609e-12  -2.193e-13   1.314e+02
  1.314e+02   9.130e-07   9.130e-07  -1.167e-12   5.582e-12  -7.648e-14   1.314e+02
  1.314e+02   9.096e-07   9.096e-07  -2.720e-13   5.636e-12  -2.499e-13   1.314e+02
  1.314e+02   9.130e-07   9.130e-07  -9.877e-13   5.565e-12  -5.931e-14   1.314e+02
  1.314e+02   9.130e-07   9.130e-07  -1.047e-13   5.619e-12  -2.292e-13   1.314e+02



TIME =   1.500e-01

Nodal Displacements

 Node          U1          U2          U3
    1  -2.727e-16  -2.148e-16   1.586e-17
    2   7.500e-01  -1.266e-13  -1.333e-16
    3   7.500e-01  -2.441e-01   6.462e-17
    4  -1.999e-16  -2.441e-01   9.612e-18
    5  -2.243e-17  -7.070e-17  -2.441e-01
    6   7.500e-01  -5.258e-17  -2.441e-01
    7   7.500e-01  -2.441e-01  -2.441e-01
    8   0.000e+00  -2.441e-01  -2.441e-01

Element Stress

        S11        S22        S33        S12        S23        S13        vonMises
Element     1
  1.487e+02   6.084e-08   6.085e-08  -4.245e-12   1.004e-11  -2.396e-13   1.487e+02
  1.487e+02   5.696e-08   5.697e-08  -9.486e-13   1.006e-11  -9.261e-13   1.487e+02
  1.487e+02   6.084e-08   6.085e-08  -3.557e-12   1.001e-11  -2.342e-13   1.487e+02
  1.487e+02   5.696e-08   5.697e-08  -2.552e-13   1.002e-11  -9.228e-13   1.487e+02
  1.487e+02   6.085e-08   6.084e-08  -4.259e-12   3.736e-11  -2.614e-13   1.487e+02
  1.487e+02   5.697e-08   5.695e-08  -9.515e-13   3.736e-11  -9.479e-13   1.487e+02
  1.487e+02   5.697e-08   5.695e-08  -3.572e-12   3.738e-11  -2.487e-13   1.487e+02
  1.487e+02   5.697e-08   5.695e-08  -2.581e-13   3.737e-11  -9.402e-13   1.487e+02



TIME =   2.000e-01

Nodal Displacements

 Node          U1          U2          U3
    1   6.426e-17  -2.186e-16   9.797e-18
    2   1.000e+00  -1.391e-13  -1.595e-16
    3   1.000e+00  -2.929e-01   1.373e-16
    4  -2.419e-16  -2.929e-01   1.046e-17
    5  -6.555e-17  -5.454e-17  -2.929e-01
    6   1.000e+00  -6.006e-17  -2.929e-01
    7   1.000e+00  -2.929e-01  -2.929e-01
    8   0.000e+00  -2.929e-01  -2.929e-01

Element Stress

        S11        S22        S33        S12        S23        S13        vonMises
Element     1
  1.575e+02   2.695e-09   2.709e-09  -3.325e-12   1.343e-11  -2.078e-13   1.575e+02
  1.575e+02   7.137e-09   7.151e-09  -7.544e-13   1.345e-11  -7.170e-13   1.575e+02
  1.575e+02   2.695e-09   2.710e-09  -2.811e-12   1.353e-11  -1.746e-13   1.575e+02
  1.575e+02   7.137e-09   7.151e-09  -2.433e-13   1.355e-11  -6.824e-13   1.575e+02
  1.575e+02   7.151e-09   7.136e-09  -3.348e-12   4.978e-11  -2.403e-13   1.575e+02
  1.575e+02   2.710e-09   2.695e-09  -7.569e-13   4.983e-11  -7.494e-13   1.575e+02
  1.575e+02   7.151e-09   7.136e-09  -2.834e-12   4.984e-11  -1.921e-13   1.575e+02
  1.575e+02   7.151e-09   7.136e-09  -2.558e-13   4.988e-11  -6.999e-13   1.575e+02



TIME =   2.500e-01

Nodal Displacements

 Node          U1          U2          U3
    1   1.467e-17  -3.005e-16   1.083e-17
    2   1.250e+00  -1.250e-13  -1.563e-16
    3   1.250e+00  -3.333e-01   1.305e-16
    4  -2.404e-16  -3.333e-01   6.223e-18
    5  -1.026e-16  -2.967e-17  -3.333e-01
    6   1.250e+00  -5.813e-17  -3.333e-01
    7   1.250e+00  -3.333e-01  -3.333e-01
    8   0.000e+00  -3.333e-01  -3.333e-01

Element Stress

        S11        S22        S33        S12        S23        S13        vonMises
Element     1
  1.622e+02   1.432e-09   1.446e-09  -2.215e-12   1.460e-11  -1.332e-13   1.622e+02
  1.622e+02  -3.564e-09  -3.550e-09  -5.076e-13   1.473e-11  -4.419e-13   1.622e+02
  1.622e+02  -3.564e-09  -3.549e-09  -1.904e-12   1.472e-11  -1.050e-13   1.622e+02
  1.622e+02   1.432e-09   1.447e-09  -1.954e-13   1.486e-11  -4.180e-13   1.622e+02
  1.622e+02   1.446e-09   1.432e-09  -2.250e-12   5.380e-11  -1.683e-13   1.622e+02
  1.622e+02  -3.549e-09  -3.564e-09  -5.120e-13   5.383e-11  -4.769e-13   1.622e+02
  1.622e+02  -3.550e-09  -3.564e-09  -1.939e-12   5.393e-11  -1.154e-13   1.622e+02
  1.622e+02   1.447e-09   1.432e-09  -2.086e-13   5.396e-11  -4.263e-13   1.622e+02



TIME =   3.000e-01

Nodal Displacements

 Node          U1          U2          U3
    1  -3.046e-16  -2.478e-16  -7.572e-18
    2   1.500e+00  -1.545e-13  -1.504e-16
    3   1.500e+00  -3.675e-01   1.525e-16
    4  -2.372e-16  -3.675e-01   2.773e-17
    5  -1.159e-16  -5.358e-17  -3.675e-01
    6   1.500e+00  -5.783e-17  -3.675e-01
    7   1.500e+00  -3.675e-01  -3.675e-01
    8   0.000e+00  -3.675e-01  -3.675e-01

Element Stress

        S11        S22        S33        S12        S23        S13        vonMises
Element     1
  1.647e+02   1.408e-09   1.427e-09  -2.082e-12   2.131e-11  -9.603e-14   1.647e+02
  1.647e+02   1.408e-09   1.427e-09  -4.844e-13   2.130e-11  -3.574e-13   1.647e+02
  1.647e+02   1.408e-09   1.427e-09  -1.822e-12   2.133e-11  -8.404e-14   1.647e+02
  1.647e+02   1.408e-09   1.427e-09  -2.234e-13   2.133e-11  -3.462e-13   1.647e+02
  1.647e+02   1.427e-09   1.408e-09  -2.102e-12   7.912e-11  -1.400e-13   1.647e+02
  1.647e+02   1.427e-09   1.408e-09  -4.844e-13   7.909e-11  -4.014e-13   1.647e+02
  1.647e+02  -4.124e-09  -4.143e-09  -1.841e-12   7.917e-11  -9.869e-14   1.647e+02
  1.647e+02  -4.124e-09  -4.143e-09  -2.234e-13   7.913e-11  -3.647e-13   1.647e+02



TIME =   3.500e-01

Nodal Displacements

 Node          U1          U2          U3
    1  -1.889e-16  -2.308e-16   2.584e-17
    2   1.750e+00  -1.279e-13  -1.333e-16
    3   1.750e+00  -3.970e-01   1.498e-16
    4  -2.406e-16  -3.970e-01   4.816e-17
    5  -1.599e-16  -6.015e-17  -3.970e-01
    6   1.750e+00  -5.117e-17  -3.970e-01
    7   1.750e+00  -3.970e-01  -3.970e-01
    8   0.000e+00  -3.970e-01  -3.970e-01

Element Stress

        S11        S22        S33        S12        S23        S13        vonMises
Element     1
  1.661e+02   1.263e-09   1.281e-09  -1.354e-12   2.102e-11  -6.768e-14   1.661e+02
  1.661e+02   1.264e-09   1.282e-09  -3.119e-13   2.119e-11  -2.322e-13   1.661e+02
  1.661e+02  -4.842e-09  -4.824e-09  -1.188e-12   2.122e-11  -4.872e-14   1.661e+02
  1.661e+02   7.371e-09   7.389e-09  -1.479e-13   2.139e-11  -2.149e-13   1.661e+02
  1.661e+02   1.281e-09   1.263e-09  -1.383e-12   7.755e-11  -1.003e-13   1.661e+02
  1.661e+02  -1.093e-08  -1.095e-08  -3.295e-13   7.763e-11  -2.647e-13   1.661e+02
  1.661e+02   1.282e-09   1.264e-09  -1.216e-12   7.760e-11  -6.369e-14   1.661e+02
  1.661e+02   1.282e-09   1.264e-09  -1.514e-13   7.767e-11  -2.299e-13   1.661e+02



TIME =   4.000e-01

Nodal Displacements

 Node          U1          U2          U3
    1  -9.377e-16  -2.112e-16   3.534e-17
    2   2.000e+00  -2.042e-13  -1.441e-16
    3   2.000e+00  -4.226e-01   1.445e-16
    4  -2.342e-16  -4.226e-01   5.011e-17
    5  -1.555e-16  -6.002e-17  -4.226e-01
    6   2.000e+00  -5.349e-17  -4.226e-01
    7   2.000e+00  -4.226e-01  -4.226e-01
    8   0.000e+00  -4.226e-01  -4.226e-01

Element Stress

        S11        S22        S33        S12        S23        S13        vonMises
Element     1
  1.669e+02   7.700e-09   7.732e-09  -1.702e-12   3.905e-11  -5.173e-14   1.669e+02
  1.669e+02   1.039e-09   1.070e-09  -3.975e-13   3.915e-11  -2.478e-13   1.669e+02
  1.669e+02   1.436e-08   1.439e-08  -1.507e-12   3.901e-11  -5.590e-14   1.669e+02
  1.669e+02   1.436e-08   1.439e-08  -2.002e-13   3.911e-11  -2.520e-13   1.669e+02
  1.669e+02   7.732e-09   7.700e-09  -1.731e-12   1.454e-10  -8.941e-14   1.669e+02
  1.669e+02   7.732e-09   7.701e-09  -4.199e-13   1.455e-10  -2.855e-13   1.669e+02
  1.669e+02   7.732e-09   7.701e-09  -1.536e-12   1.455e-10  -7.434e-14   1.669e+02
  1.669e+02   1.440e-08   1.436e-08  -2.099e-13   1.456e-10  -2.705e-13   1.669e+02



TIME =   4.500e-01

Nodal Displacements

 Node          U1          U2          U3
    1  -1.276e-15  -2.175e-16   4.985e-17
    2   2.250e+00  -1.825e-13  -1.362e-16
    3   2.250e+00  -4.453e-01   1.458e-16
    4  -2.365e-16  -4.453e-01   5.951e-17
    5  -2.064e-16  -5.402e-17  -4.453e-01
    6   2.250e+00  -4.955e-17  -4.453e-01
    7   2.250e+00  -4.453e-01  -4.453e-01
    8   0.000e+00  -4.453e-01  -4.453e-01

Element Stress

        S11        S22        S33        S12        S23        S13        vonMises
Element     1
  1.673e+02  -8.374e-09  -8.344e-09  -1.225e-12   4.081e-11  -1.754e-14   1.673e+02
  1.673e+02  -1.157e-09  -1.126e-09  -2.881e-13   4.090e-11  -1.510e-13   1.673e+02
  1.673e+02  -8.374e-09  -8.343e-09  -1.091e-12   4.106e-11  -3.395e-14   1.673e+02
  1.673e+02   6.060e-09   6.091e-09  -1.550e-13   4.115e-11  -1.676e-13   1.673e+02
  1.673e+02   6.091e-09   6.060e-09  -1.264e-12   1.514e-10  -6.463e-14   1.673e+02
  1.673e+02  -1.126e-09  -1.157e-09  -2.999e-13   1.515e-10  -1.981e-13   1.673e+02
  1.673e+02  -1.126e-09  -1.157e-09  -1.129e-12   1.515e-10  -4.866e-14   1.673e+02
  1.673e+02   6.092e-09   6.061e-09  -1.668e-13   1.516e-10  -1.823e-13   1.673e+02



TIME =   5.000e-01

Nodal Displacements

 Node          U1          U2          U3
    1  -1.868e-15  -1.791e-16   5.828e-18
    2   2.500e+00  -2.051e-13  -1.310e-16
    3   2.500e+00  -4.655e-01   1.460e-16
    4  -2.370e-16  -4.655e-01   5.364e-17
    5  -2.746e-16  -5.085e-17  -4.655e-01
    6   2.500e+00  -5.061e-17  -4.655e-01
    7   2.500e+00  -4.655e-01  -4.655e-01
    8   0.000e+00  -4.655e-01  -4.655e-01

Element Stress

        S11        S22        S33        S12        S23        S13        vonMises
Element     1
  1.674e+02  -3.183e-09  -3.145e-09  -1.123e-12   5.300e-11   9.915e-16   1.674e+02
  1.674e+02  -1.095e-08  -1.092e-08  -2.596e-13   5.323e-11  -1.132e-13   1.674e+02
  1.674e+02  -3.181e-09  -3.144e-09  -1.008e-12   5.297e-11  -2.285e-14   1.674e+02
  1.674e+02  -3.181e-09  -3.143e-09  -1.431e-13   5.320e-11  -1.379e-13   1.674e+02
  1.674e+02   4.627e-09   4.590e-09  -1.188e-12   1.970e-10  -6.154e-14   1.674e+02
  1.674e+02   4.628e-09   4.591e-09  -2.813e-13   1.971e-10  -1.758e-13   1.674e+02
  1.674e+02  -3.144e-09  -3.181e-09  -1.073e-12   1.972e-10  -4.461e-14   1.674e+02
  1.674e+02   4.630e-09   4.593e-09  -1.648e-13   1.973e-10  -1.570e-13   1.674e+02



TIME =   5.500e-01

Nodal Displacements

 Node          U1          U2          U3
    1  -1.686e-15  -1.826e-16   1.166e-17
    2   2.750e+00  -1.988e-13  -1.300e-16
    3   2.750e+00  -4.836e-01   1.486e-16
    4  -2.352e-16  -4.836e-01   5.858e-17
    5  -3.178e-16  -4.182e-17  -4.836e-01
    6   2.750e+00  -4.948e-17  -4.836e-01
    7   2.750e+00  -4.836e-01  -4.836e-01
    8   0.000e+00  -4.836e-01  -4.836e-01

Element Stress

        S11        S22        S33        S12        S23        S13        vonMises
Element     1
  1.674e+02   4.147e-10   4.538e-10  -9.146e-13   5.915e-11   1.794e-15   1.674e+02
  1.674e+02  -1.624e-08  -1.620e-08  -2.165e-13   5.928e-11  -8.488e-14   1.674e+02
  1.674e+02  -7.911e-09  -7.872e-09  -8.278e-13   5.932e-11  -1.589e-14   1.674e+02
  1.674e+02  -7.909e-09  -7.871e-09  -1.303e-13   5.945e-11  -1.012e-13   1.674e+02
  1.674e+02   4.538e-10   4.147e-10  -9.701e-13   2.197e-10  -4.242e-14   1.674e+02
  1.674e+02  -1.620e-08  -1.624e-08  -2.317e-13   2.202e-10  -1.291e-13   1.674e+02
  1.674e+02   4.557e-10   4.184e-10  -8.833e-13   2.198e-10  -3.105e-14   1.674e+02
  1.674e+02   4.566e-10   4.193e-10  -1.454e-13   2.202e-10  -1.189e-13   1.674e+02



TIME =   6.000e-01

Nodal Displacements

 Node          U1          U2          U3
    1  -2.313e-15  -1.420e-16  -1.174e-17
    2   3.000e+00  -2.270e-13  -1.399e-16
    3   3.000e+00  -5.000e-01   1.491e-16
    4  -2.382e-16  -5.000e-01   5.165e-17
    5  -2.443e-16  -4.144e-17  -5.000e-01
    6   3.000e+00  -5.636e-17  -5.000e-01
    7   3.000e+00  -5.000e-01  -5.000e-01
    8   0.000e+00  -5.000e-01  -5.000e-01

Element Stress

        S11        S22        S33        S12        S23        S13        vonMises
Element     1
  1.673e+02   1.357e-08   1.361e-08  -8.658e-13   7.727e-11   2.683e-14   1.673e+02
  1.673e+02   4.686e-09   4.733e-09  -2.075e-13   7.778e-11  -5.014e-14   1.673e+02
  1.673e+02   1.357e-08   1.362e-08  -7.892e-13   7.746e-11  -9.216e-15   1.673e+02
  1.673e+02   1.357e-08   1.362e-08  -1.301e-13   7.797e-11  -8.700e-14   1.673e+02
  1.673e+02   4.731e-09   4.684e-09  -9.224e-13   2.870e-10  -2.389e-14   1.673e+02
  1.673e+02   1.361e-08   1.357e-08  -2.264e-13   2.873e-10  -1.009e-13   1.673e+02
  1.673e+02   4.734e-09   4.688e-09  -8.458e-13   2.873e-10  -2.809e-14   1.673e+02
  1.673e+02   1.362e-08   1.357e-08  -1.489e-13   2.876e-10  -1.059e-13   1.673e+02



TIME =   6.500e-01

Nodal Displacements

 Node          U1          U2          U3
    1  -2.687e-15  -8.212e-17  -1.190e-17
    2   3.250e+00  -2.463e-13  -1.427e-16
    3   3.250e+00  -5.149e-01   1.479e-16
    4  -2.386e-16  -5.149e-01   4.211e-17
    5  -2.046e-16  -4.206e-17  -5.149e-01
    6   3.250e+00  -5.706e-17  -5.149e-01
    7   3.250e+00  -5.149e-01  -5.149e-01
    8   0.000e+00  -5.149e-01  -5.149e-01

Element Stress

        S11        S22        S33        S12        S23        S13        vonMises
Element     1
  1.672e+02  -4.126e-09  -4.073e-09  -7.969e-13   9.507e-11   3.474e-14   1.672e+02
  1.672e+02  -4.124e-09  -4.071e-09  -1.946e-13   9.492e-11  -3.231e-14   1.672e+02
  1.672e+02  -2.300e-08  -2.295e-08  -7.295e-13   9.560e-11  -8.228e-16   1.672e+02
  1.672e+02  -1.356e-08  -1.351e-08  -1.273e-13   9.545e-11  -6.705e-14   1.672e+02
  1.672e+02  -4.074e-09  -4.126e-09  -8.235e-13   3.540e-10  -7.301e-15   1.672e+02
  1.672e+02   5.370e-09   5.315e-09  -1.946e-13   3.542e-10  -7.435e-14   1.672e+02
  1.672e+02  -4.073e-09  -4.125e-09  -7.561e-13   3.544e-10  -3.733e-14   1.672e+02
  1.672e+02   5.369e-09   5.315e-09  -1.273e-13   3.545e-10  -1.080e-13   1.672e+02



TIME =   7.000e-01

Nodal Displacements

 Node          U1          U2          U3
    1  -2.310e-15  -9.335e-17  -3.015e-17
    2   3.500e+00  -2.619e-13  -1.339e-16
    3   3.500e+00  -5.286e-01   1.349e-16
    4  -2.382e-16  -5.286e-01   3.952e-17
    5  -2.420e-16  -4.437e-17  -5.286e-01
    6   3.500e+00  -5.917e-17  -5.286e-01
    7   3.500e+00  -5.286e-01  -5.286e-01
    8   0.000e+00  -5.286e-01  -5.286e-01

Element Stress

        S11        S22        S33        S12        S23        S13        vonMises
Element     1
  1.670e+02   1.674e-08   1.680e-08  -7.325e-13   1.142e-10   2.757e-14   1.670e+02
  1.670e+02  -3.247e-09  -3.186e-09  -1.798e-13   1.143e-10  -3.059e-14   1.670e+02
  1.670e+02   6.748e-09   6.808e-09  -6.750e-13   1.143e-10  -6.369e-15   1.670e+02
  1.670e+02   6.749e-09   6.809e-09  -1.219e-13   1.144e-10  -6.409e-14   1.670e+02
  1.670e+02   6.806e-09   6.746e-09  -7.575e-13   4.255e-10  -1.306e-14   1.670e+02
  1.670e+02  -2.317e-08  -2.323e-08  -1.798e-13   4.258e-10  -7.122e-14   1.670e+02
  1.670e+02   6.806e-09   6.747e-09  -7.000e-13   4.257e-10  -3.345e-14   1.670e+02
  1.670e+02  -3.186e-09  -3.246e-09  -1.219e-13   4.260e-10  -9.118e-14   1.670e+02



TIME =   7.500e-01

Nodal Displacements

 Node          U1          U2          U3
    1  -1.431e-15  -8.407e-17  -1.915e-17
    2   3.750e+00  -2.670e-13  -1.392e-16
    3   3.750e+00  -5.411e-01   1.436e-16
    4  -2.390e-16  -5.411e-01   5.054e-17
    5  -2.508e-16  -4.603e-17  -5.411e-01
    6   3.750e+00  -5.926e-17  -5.411e-01
    7   3.750e+00  -5.411e-01  -5.411e-01
    8   0.000e+00  -5.411e-01  -5.411e-01

Element Stress

        S11        S22        S33        S12        S23        S13        vonMises
Element     1
  1.668e+02   5.639e-11   1.191e-10  -6.681e-13   1.310e-10   5.936e-15   1.668e+02
  1.668e+02  -1.049e-08  -1.043e-08  -1.640e-13   1.310e-10  -4.188e-14   1.668e+02
  1.668e+02  -1.049e-08  -1.043e-08  -6.205e-13   1.312e-10  -1.224e-14   1.668e+02
  1.668e+02  -1.049e-08  -1.043e-08  -1.161e-13   1.312e-10  -5.982e-14   1.668e+02
  1.668e+02  -1.043e-08  -1.050e-08  -6.721e-13   4.882e-10  -1.768e-14   1.668e+02
  1.668e+02   1.237e-10   5.912e-11  -1.600e-13   4.884e-10  -6.550e-14   1.668e+02
  1.668e+02  -2.098e-08  -2.104e-08  -6.244e-13   4.884e-10  -2.897e-14   1.668e+02
  1.668e+02   1.237e-10   5.912e-11  -1.122e-13   4.885e-10  -7.655e-14   1.668e+02



TIME =   8.000e-01

Nodal Displacements

 Node          U1          U2          U3
    1  -1.142e-15  -1.059e-16  -6.591e-17
    2   4.000e+00  -2.781e-13  -1.417e-16
    3   4.000e+00  -5.528e-01   1.474e-16
    4  -2.383e-16  -5.528e-01   5.069e-17
    5  -2.330e-16  -4.270e-17  -5.528e-01
    6   4.000e+00  -6.423e-17  -5.528e-01
    7   4.000e+00  -5.528e-01  -5.528e-01
    8   0.000e+00  -5.528e-01  -5.528e-01

Element Stress

        S11        S22        S33        S12        S23        S13        vonMises
Element     1
  1.666e+02  -1.039e-08  -1.032e-08  -6.253e-13   1.530e-10   3.111e-17   1.666e+02
  1.666e+02  -1.039e-08  -1.032e-08  -1.505e-13   1.529e-10  -4.013e-14   1.666e+02
  1.666e+02  -1.039e-08  -1.032e-08  -5.847e-13   1.533e-10  -7.095e-15   1.666e+02
  1.666e+02  -1.039e-08  -1.032e-08  -1.099e-13   1.532e-10  -4.726e-14   1.666e+02
  1.666e+02   7.840e-10   7.140e-10  -6.439e-13   5.693e-10  -2.608e-14   1.666e+02
  1.666e+02   7.867e-10   7.158e-10  -1.617e-13   5.692e-10  -6.624e-14   1.666e+02
  1.666e+02   7.840e-10   7.140e-10  -6.034e-13   5.697e-10  -2.948e-14   1.666e+02
  1.666e+02   7.867e-10   7.158e-10  -1.062e-13   5.695e-10  -6.964e-14   1.666e+02



TIME =   8.500e-01

Nodal Displacements

 Node          U1          U2          U3
    1  -1.109e-15  -1.196e-16  -5.873e-17
    2   4.250e+00  -2.815e-13  -1.530e-16
    3   4.250e+00  -5.635e-01   1.524e-16
    4  -2.359e-16  -5.635e-01   4.843e-17
    5  -1.624e-16  -4.099e-17  -5.635e-01
    6   4.250e+00  -6.309e-17  -5.635e-01
    7   4.250e+00  -5.635e-01  -5.635e-01
    8   0.000e+00  -5.635e-01  -5.635e-01

Element Stress

        S11        S22        S33        S12        S23        S13        vonMises
Element     1
  1.664e+02  -2.073e-08  -2.066e-08  -5.587e-13   1.727e-10   1.580e-15   1.664e+02
  1.664e+02  -9.070e-09  -8.999e-09  -1.383e-13   1.728e-10  -3.238e-14   1.664e+02
  1.664e+02  -2.073e-08  -2.066e-08  -5.245e-13   1.730e-10  -5.140e-15   1.664e+02
  1.664e+02  -2.073e-08  -2.066e-08  -1.043e-13   1.731e-10  -3.888e-14   1.664e+02
  1.664e+02  -9.000e-09  -9.075e-09  -5.764e-13   6.428e-10  -3.741e-14   1.664e+02
  1.664e+02  -8.997e-09  -9.072e-09  -1.312e-13   6.432e-10  -7.137e-14   1.664e+02
  1.664e+02   1.432e-08   1.425e-08  -5.422e-13   6.428e-10  -4.058e-14   1.664e+02
  1.664e+02   2.666e-09   2.591e-09  -1.114e-13   6.432e-10  -7.432e-14   1.664e+02



TIME =   9.000e-01

Nodal Displacements

 Node          U1          U2          U3
    1  -3.971e-16  -1.189e-16  -1.699e-17
    2   4.500e+00  -2.724e-13  -1.424e-16
    3   4.500e+00  -5.736e-01   1.494e-16
    4  -2.358e-16  -5.736e-01   5.495e-17
    5  -2.455e-16  -3.978e-17  -5.736e-01
    6   4.500e+00  -6.561e-17  -5.736e-01
    7   4.500e+00  -5.736e-01  -5.736e-01
    8   0.000e+00  -5.736e-01  -5.736e-01

Element Stress

        S11        S22        S33        S12        S23        S13        vonMises
Element     1
  1.662e+02  -2.803e-08  -2.795e-08  -4.962e-13   1.855e-10  -1.605e-14   1.662e+02
  1.662e+02  -2.802e-08  -2.795e-08  -1.222e-13   1.858e-10  -4.334e-14   1.662e+02
  1.662e+02  -2.802e-08  -2.795e-08  -4.684e-13   1.855e-10  -8.194e-15   1.662e+02
  1.662e+02  -2.802e-08  -2.795e-08  -9.453e-14   1.857e-10  -3.548e-14   1.662e+02
  1.662e+02   2.091e-08   2.083e-08  -5.097e-13   6.908e-10  -3.715e-14   1.662e+02
  1.662e+02   8.700e-09   8.624e-09  -1.256e-13   6.910e-10  -6.444e-14   1.662e+02
  1.662e+02   3.313e-08   3.305e-08  -4.819e-13   6.905e-10  -2.676e-14   1.662e+02
  1.662e+02   8.700e-09   8.624e-09  -9.790e-14   6.907e-10  -5.405e-14   1.662e+02



TIME =   9.500e-01

Nodal Displacements

 Node          U1          U2          U3
    1  -1.743e-15  -1.180e-16  -2.619e-17
    2   4.750e+00  -2.818e-13  -1.376e-16
    3   4.750e+00  -5.829e-01   1.444e-16
    4  -2.355e-16  -5.829e-01   5.914e-17
    5  -1.311e-16  -4.099e-17  -5.829e-01
    6   4.750e+00  -6.224e-17  -5.829e-01
    7   4.750e+00  -5.829e-01  -5.829e-01
    8   0.000e+00  -5.829e-01  -5.829e-01

Element Stress

        S11        S22        S33        S12        S23        S13        vonMises
Element     1
  1.661e+02  -8.615e-09  -8.533e-09  -4.334e-13   2.125e-10   1.299e-14   1.661e+02
  1.661e+02  -2.137e-08  -2.129e-08  -1.038e-13   2.129e-10  -1.051e-14   1.661e+02
  1.661e+02   2.970e-08   2.978e-08  -4.098e-13   2.128e-10  -2.145e-15   1.661e+02
  1.661e+02   1.694e-08   1.702e-08  -7.969e-14   2.132e-10  -2.593e-14   1.661e+02
  1.661e+02   4.240e-09   4.160e-09  -4.463e-13   7.909e-10  -1.844e-14   1.661e+02
  1.661e+02   1.702e-08   1.694e-08  -1.038e-13   7.908e-10  -4.193e-14   1.661e+02
  1.661e+02   4.240e-09   4.160e-09  -4.227e-13   7.916e-10  -2.471e-14   1.661e+02
  1.661e+02   1.702e-08   1.694e-08  -7.969e-14   7.915e-10  -4.527e-14   1.661e+02



TIME =   1.000e+00

Nodal Displacements

 Node          U1          U2          U3
    1  -1.077e-15  -1.081e-16  -4.417e-17
    2   5.000e+00  -2.920e-13  -1.407e-16
    3   5.000e+00  -5.917e-01   1.496e-16
    4  -2.311e-16  -5.917e-01   6.188e-17
    5  -2.529e-16  -3.991e-17  -5.917e-01
    6   5.000e+00  -6.266e-17  -5.917e-01
    7   5.000e+00  -5.917e-01  -5.917e-01
    8   0.000e+00  -5.917e-01  -5.917e-01

Element Stress

        S11        S22        S33        S12        S23        S13        vonMises
Element     1
  1.659e+02  -1.417e-08  -1.409e-08  -4.090e-13   2.427e-10  -6.683e-16   1.659e+02
  1.659e+02  -2.750e-08  -2.741e-08  -1.029e-13   2.434e-10  -2.118e-14   1.659e+02
  1.659e+02  -8.458e-10  -7.603e-10  -3.885e-13   2.429e-10  -4.234e-15   1.659e+02
  1.659e+02  -1.417e-08  -1.408e-08  -8.217e-14   2.436e-10  -2.461e-14   1.659e+02
  1.659e+02  -1.409e-08  -1.417e-08  -4.275e-13   9.036e-10  -1.994e-14   1.659e+02
  1.659e+02  -1.408e-08  -1.417e-08  -9.672e-14   9.045e-10  -4.045e-14   1.659e+02
  1.659e+02  -7.622e-10  -8.458e-10  -4.070e-13   9.039e-10  -1.965e-14   1.659e+02
  1.659e+02  -7.567e-10  -8.440e-10  -8.834e-14   9.048e-10  -4.003e-14   1.659e+02

