

TIME =   5.000e-02

Nodal Displacements

 Node          U1          U2          U3
    1  -2.628e-16  -3.780e-17  -6.819e-18
    2   2.500e-01   4.537e-15   5.513e-17
    3   2.500e-01  -1.056e-01  -6.475e-17
    4   5.258e-17  -1.056e-01  -5.454e-17
    5   2.298e-17   2.778e-17  -1.056e-01
    6   2.500e-01   1.545e-17  -1.056e-01
    7   2.500e-01  -1.056e-01  -1.056e-01
    8   0.000e+00  -1.056e-01  -1.056e-01

Element Stress

        S11        S22        S33        S12        S23        S13        vonMises
Element     1
  9.370e+01   1.073e-09   1.073e-09   4.035e-13  -2.449e-13   5.969e-14   9.370e+01
  9.370e+01   1.073e-09   1.073e-09   8.491e-14  -2.486e-13   1.283e-13   9.370e+01
  9.370e+01   1.073e-09   1.073e-09   3.326e-13  -2.524e-13   3.015e-14   9.370e+01
  9.370e+01   1.073e-09   1.073e-09   1.234e-14  -2.561e-13   1.008e-13   9.370e+01
  9.370e+01   1.073e-09   1.073e-09   3.925e-13  -9.142e-13   5.250e-14   9.370e+01
  9.370e+01  -1.703e-09  -1.703e-09   8.277e-14  -9.160e-13   1.211e-13   9.370e+01
  9.370e+01   1.073e-09   1.073e-09   3.217e-13  -9.242e-13   3.015e-14   9.370e+01
  9.370e+01  -1.703e-09  -1.703e-09   1.021e-14  -9.268e-13   1.008e-13   9.370e+01



TIME =   1.000e-01

Nodal Displacements

 Node          U1          U2          U3
    1   5.511e-16  -1.092e-16  -3.428e-17
    2   5.000e-01   6.340e-14   1.231e-16
    3   5.000e-01  -1.835e-01  -7.634e-17
    4   9.604e-17  -1.835e-01  -9.178e-17
    5   3.023e-17   8.597e-17  -1.835e-01
    6   5.000e-01   2.398e-17  -1.835e-01
    7   5.000e-01  -1.835e-01  -1.835e-01
    8   0.000e+00  -1.835e-01  -1.835e-01

Element Stress

        S11        S22        S33        S12        S23        S13        vonMises
Element     1
  1.314e+02   9.130e-07   9.130e-07   3.176e-12  -4.128e-12   1.523e-13   1.314e+02
  1.314e+02   9.130e-07   9.130e-07   7.102e-13  -4.168e-12   6.545e-13   1.314e+02
  1.314e+02   9.163e-07   9.163e-07   2.674e-12  -4.214e-12   1.698e-13   1.314e+02
  1.314e+02   9.130e-07   9.130e-07   2.035e-13  -4.254e-12   6.724e-13   1.314e+02
  1.314e+02   9.130e-07   9.130e-07   3.210e-12  -1.540e-11   1.941e-13   1.314e+02
  1.314e+02   9.130e-07   9.130e-07   7.205e-13  -1.544e-11   6.964e-13   1.314e+02
  1.314e+02   9.130e-07   9.130e-07   2.708e-12  -1.551e-11   1.871e-13   1.314e+02
  1.314e+02   9.096e-07   9.096e-07   2.138e-13  -1.555e-11   6.966e-13   1.314e+02



TIME =   1.500e-01

Nodal Displacements

 Node          U1          U2          U3
    1   9.337e-17  -1.472e-16   2.753e-17
    2   7.500e-01   1.231e-13   1.498e-16
    3   7.500e-01  -2.441e-01  -1.716e-16
    4   1.982e-16  -2.441e-01  -9.642e-17
    5   8.305e-17   4.316e-17  -2.441e-01
    6   7.500e-01   1.868e-17  -2.441e-01
    7   7.500e-01  -2.441e-01  -2.441e-01
    8   0.000e+00  -2.441e-01  -2.441e-01

Element Stress

        S11        S22        S33        S12        S23        S13        vonMises
Element     1
  1.487e+02   5.697e-08   5.696e-08   4.161e-12  -9.720e-12   2.464e-13   1.487e+02
  1.487e+02   5.697e-08   5.696e-08   9.341e-13  -9.669e-12   9.039e-13   1.487e+02
  1.487e+02   6.085e-08   6.084e-08   3.513e-12  -9.736e-12   2.237e-13   1.487e+02
  1.487e+02   6.085e-08   6.084e-08   2.787e-13  -9.685e-12   8.718e-13   1.487e+02
  1.487e+02   6.084e-08   6.085e-08   4.172e-12  -3.640e-11   2.694e-13   1.487e+02
  1.487e+02   5.696e-08   5.697e-08   9.435e-13  -3.643e-11   9.269e-13   1.487e+02
  1.487e+02   5.696e-08   5.697e-08   3.524e-12  -3.647e-11   2.505e-13   1.487e+02
  1.487e+02   5.696e-08   5.697e-08   2.881e-13  -3.650e-11   8.870e-13   1.487e+02



TIME =   2.000e-01

Nodal Displacements

 Node          U1          U2          U3
    1   7.353e-16  -1.448e-16   3.752e-17
    2   1.000e+00   2.188e-13   1.064e-16
    3   1.000e+00  -2.929e-01  -1.445e-16
    4  -1.875e-17  -2.929e-01  -8.197e-17
    5   4.658e-17   6.966e-17  -2.929e-01
    6   1.000e+00   2.713e-17  -2.929e-01
    7   1.000e+00  -2.929e-01  -2.929e-01
    8   0.000e+00  -2.929e-01  -2.929e-01

Element Stress

        S11        S22        S33        S12        S23        S13        vonMises
Element     1
  1.575e+02   1.160e-08   1.157e-08   5.167e-12  -2.098e-11   2.627e-13   1.575e+02
  1.575e+02   7.155e-09   7.133e-09   1.166e-12  -2.102e-11   1.061e-12   1.575e+02
  1.575e+02   1.604e-08   1.601e-08   4.363e-12  -2.110e-11   2.831e-13   1.575e+02
  1.575e+02   7.155e-09   7.132e-09   3.665e-13  -2.114e-11   1.080e-12   1.575e+02
  1.575e+02   2.692e-09   2.714e-09   5.221e-12  -7.823e-11   3.158e-13   1.575e+02
  1.575e+02   2.691e-09   2.714e-09   1.189e-12  -7.829e-11   1.114e-12   1.575e+02
  1.575e+02   7.132e-09   7.155e-09   4.417e-12  -7.831e-11   2.906e-13   1.575e+02
  1.575e+02   2.691e-09   2.714e-09   3.889e-13  -7.836e-11   1.098e-12   1.575e+02



TIME =   2.500e-01

Nodal Displacements

 Node          U1          U2          U3
    1   9.085e-16  -1.673e-16   3.302e-17
    2   1.250e+00   1.753e-13   1.259e-16
    3   1.250e+00  -3.333e-01  -1.308e-16
    4  -1.163e-17  -3.333e-01  -7.185e-17
    5   6.110e-17   5.566e-17  -3.333e-01
    6   1.250e+00   3.142e-17  -3.333e-01
    7   1.250e+00  -3.333e-01  -3.333e-01
    8   0.000e+00  -3.333e-01  -3.333e-01

Element Stress

        S11        S22        S33        S12        S23        S13        vonMises
Element     1
  1.622e+02   1.450e-09   1.430e-09   3.034e-12  -2.022e-11   1.253e-13   1.622e+02
  1.622e+02  -3.546e-09  -3.567e-09   6.934e-13  -2.033e-11   5.613e-13   1.622e+02
  1.622e+02   1.450e-09   1.429e-09   2.595e-12  -2.036e-11   1.492e-13   1.622e+02
  1.622e+02  -8.542e-09  -8.563e-09   2.572e-13  -2.047e-11   5.865e-13   1.622e+02
  1.622e+02  -3.566e-09  -3.546e-09   3.071e-12  -7.532e-11   1.638e-13   1.622e+02
  1.622e+02   1.429e-09   1.450e-09   7.103e-13  -7.541e-11   5.998e-13   1.622e+02
  1.622e+02  -3.567e-09  -3.547e-09   2.632e-12  -7.542e-11   1.706e-13   1.622e+02
  1.622e+02  -3.567e-09  -3.547e-09   2.742e-13  -7.551e-11   6.079e-13   1.622e+02



TIME =   3.000e-01

Nodal Displacements

 Node          U1          U2          U3
    1   1.120e-15  -2.147e-16   6.066e-17
    2   1.500e+00   1.556e-13   1.334e-16
    3   1.500e+00  -3.675e-01  -1.356e-16
    4  -1.104e-17  -3.675e-01  -7.287e-17
    5   6.379e-17   5.632e-17  -3.675e-01
    6   1.500e+00   3.273e-17  -3.675e-01
    7   1.500e+00  -3.675e-01  -3.675e-01
    8   0.000e+00  -3.675e-01  -3.675e-01

Element Stress

        S11        S22        S33        S12        S23        S13        vonMises
Element     1
  1.647e+02  -9.672e-09  -9.695e-09   2.023e-12  -2.133e-11   6.848e-14   1.647e+02
  1.647e+02  -9.673e-09  -9.695e-09   4.578e-13  -2.140e-11   3.732e-13   1.647e+02
  1.647e+02  -4.122e-09  -4.144e-09   1.720e-12  -2.147e-11   1.021e-13   1.647e+02
  1.647e+02  -9.673e-09  -9.695e-09   1.526e-13  -2.154e-11   4.063e-13   1.647e+02
  1.647e+02  -4.144e-09  -4.121e-09   2.053e-12  -7.974e-11   1.151e-13   1.647e+02
  1.647e+02  -4.144e-09  -4.122e-09   4.705e-13  -7.981e-11   4.199e-13   1.647e+02
  1.647e+02  -4.144e-09  -4.122e-09   1.750e-12  -7.993e-11   1.304e-13   1.647e+02
  1.647e+02  -9.696e-09  -9.673e-09   1.653e-13  -8.000e-11   4.346e-13   1.647e+02



TIME =   3.500e-01

Nodal Displacements

 Node          U1          U2          U3
    1   1.006e-15  -2.452e-16   4.920e-17
    2   1.750e+00   1.476e-13   1.417e-16
    3   1.750e+00  -3.970e-01  -1.504e-16
    4  -1.486e-17  -3.970e-01  -8.072e-17
    5   7.850e-17   6.246e-17  -3.970e-01
    6   1.750e+00   3.845e-17  -3.970e-01
    7   1.750e+00  -3.970e-01  -3.970e-01
    8   0.000e+00  -3.970e-01  -3.970e-01

Element Stress

        S11        S22        S33        S12        S23        S13        vonMises
Element     1
  1.661e+02   1.285e-09   1.264e-09   1.513e-12  -2.388e-11   4.183e-14   1.661e+02
  1.661e+02   1.284e-09   1.264e-09   3.522e-13  -2.387e-11   2.320e-13   1.661e+02
  1.661e+02   1.285e-09   1.264e-09   1.320e-12  -2.390e-11   6.395e-14   1.661e+02
  1.661e+02   7.390e-09   7.369e-09   1.617e-13  -2.389e-11   2.553e-13   1.661e+02
  1.661e+02  -4.843e-09  -4.822e-09   1.540e-12  -8.937e-11   8.224e-14   1.661e+02
  1.661e+02   1.263e-09   1.284e-09   3.702e-13  -8.930e-11   2.724e-13   1.661e+02
  1.661e+02  -4.843e-09  -4.821e-09   1.347e-12  -8.930e-11   8.906e-14   1.661e+02
  1.661e+02   7.369e-09   7.390e-09   1.798e-13  -8.922e-11   2.945e-13   1.661e+02



TIME =   4.000e-01

Nodal Displacements

 Node          U1          U2          U3
    1   6.358e-16  -2.400e-16   6.343e-17
    2   2.000e+00   1.014e-13   1.666e-16
    3   2.000e+00  -4.226e-01  -1.696e-16
    4  -1.488e-17  -4.226e-01  -9.141e-17
    5   7.557e-17   7.226e-17  -4.226e-01
    6   2.000e+00   4.735e-17  -4.226e-01
    7   2.000e+00  -4.226e-01  -4.226e-01
    8   0.000e+00  -4.226e-01  -4.226e-01

Element Stress

        S11        S22        S33        S12        S23        S13        vonMises
Element     1
  1.669e+02   7.726e-09   7.710e-09   8.311e-13  -1.937e-11   2.618e-14   1.669e+02
  1.669e+02   1.063e-09   1.047e-09   1.931e-13  -1.935e-11   1.239e-13   1.669e+02
  1.669e+02   7.726e-09   7.710e-09   7.327e-13  -1.968e-11   3.895e-14   1.669e+02
  1.669e+02   1.063e-09   1.047e-09   9.526e-14  -1.966e-11   1.380e-13   1.669e+02
  1.669e+02   1.048e-09   1.063e-09   8.424e-13  -7.227e-11   5.264e-14   1.669e+02
  1.669e+02   1.047e-09   1.063e-09   2.028e-13  -7.225e-11   1.504e-13   1.669e+02
  1.669e+02   7.710e-09   7.725e-09   7.439e-13  -7.254e-11   6.140e-14   1.669e+02
  1.669e+02   7.709e-09   7.725e-09   1.049e-13  -7.251e-11   1.733e-13   1.669e+02



TIME =   4.500e-01

Nodal Displacements

 Node          U1          U2          U3
    1   1.153e-15  -2.653e-16   3.414e-17
    2   2.250e+00   1.522e-13   1.693e-16
    3   2.250e+00  -4.453e-01  -1.553e-16
    4  -1.422e-17  -4.453e-01  -8.727e-17
    5  -1.124e-17   6.508e-17  -4.453e-01
    6   2.250e+00   4.922e-17  -4.453e-01
    7   2.250e+00  -4.453e-01  -4.453e-01
    8   0.000e+00  -4.453e-01  -4.453e-01

Element Stress

        S11        S22        S33        S12        S23        S13        vonMises
Element     1
  1.673e+02  -1.556e-08  -1.559e-08   1.006e-12  -3.379e-11   1.086e-14   1.673e+02
  1.673e+02  -8.345e-09  -8.370e-09   2.412e-13  -3.394e-11   1.220e-13   1.673e+02
  1.673e+02  -8.344e-09  -8.369e-09   8.961e-13  -3.400e-11   3.973e-14   1.673e+02
  1.673e+02  -8.345e-09  -8.370e-09   1.314e-13  -3.414e-11   1.519e-13   1.673e+02
  1.673e+02   6.066e-09   6.091e-09   1.026e-12  -1.263e-10   6.098e-14   1.673e+02
  1.673e+02   6.064e-09   6.090e-09   2.467e-13  -1.263e-10   1.721e-13   1.673e+02
  1.673e+02   6.065e-09   6.090e-09   9.161e-13  -1.265e-10   7.173e-14   1.673e+02
  1.673e+02  -1.154e-09  -1.128e-09   1.369e-13  -1.266e-10   1.839e-13   1.673e+02



TIME =   5.000e-01

Nodal Displacements

 Node          U1          U2          U3
    1   1.468e-15  -2.743e-16   4.191e-17
    2   2.500e+00   1.617e-13   1.523e-16
    3   2.500e+00  -4.655e-01  -1.537e-16
    4  -7.622e-18  -4.655e-01  -7.254e-17
    5  -1.804e-17   6.730e-17  -4.655e-01
    6   2.500e+00   4.997e-17  -4.655e-01
    7   2.500e+00  -4.655e-01  -4.655e-01
    8   0.000e+00  -4.655e-01  -4.655e-01

Element Stress

        S11        S22        S33        S12        S23        S13        vonMises
Element     1
  1.674e+02  -1.869e-08  -1.872e-08   8.694e-13  -4.138e-11  -1.052e-14   1.674e+02
  1.674e+02  -1.092e-08  -1.095e-08   2.100e-13  -4.135e-11   8.017e-14   1.674e+02
  1.674e+02  -1.092e-08  -1.095e-08   7.795e-13  -4.147e-11   2.538e-14   1.674e+02
  1.674e+02  -3.147e-09  -3.176e-09   1.200e-13  -4.143e-11   1.162e-13   1.674e+02
  1.674e+02  -3.175e-09  -3.145e-09   8.880e-13  -1.552e-10   3.723e-14   1.674e+02
  1.674e+02   4.597e-09   4.625e-09   2.148e-13  -1.552e-10   1.279e-13   1.674e+02
  1.674e+02  -3.176e-09  -3.146e-09   7.981e-13  -1.553e-10   5.733e-14   1.674e+02
  1.674e+02   4.597e-09   4.625e-09   1.247e-13  -1.552e-10   1.482e-13   1.674e+02



TIME =   5.500e-01

Nodal Displacements

 Node          U1          U2          U3
    1   1.610e-15  -3.065e-16   5.893e-17
    2   2.750e+00   1.670e-13   1.530e-16
    3   2.750e+00  -4.836e-01  -1.509e-16
    4  -9.368e-18  -4.836e-01  -6.389e-17
    5  -1.106e-16   6.269e-17  -4.836e-01
    6   2.750e+00   4.961e-17  -4.836e-01
    7   2.750e+00  -4.836e-01  -4.836e-01
    8   0.000e+00  -4.836e-01  -4.836e-01

Element Stress

        S11        S22        S33        S12        S23        S13        vonMises
Element     1
  1.674e+02   4.557e-10   4.234e-10   7.560e-13  -4.930e-11  -1.382e-14   1.674e+02
  1.674e+02   8.781e-09   8.749e-09   1.843e-13  -4.954e-11   5.928e-14   1.674e+02
  1.674e+02  -7.873e-09  -7.906e-09   6.823e-13  -4.928e-11   2.130e-14   1.674e+02
  1.674e+02  -7.874e-09  -7.907e-09   1.111e-13  -4.953e-11   9.502e-14   1.674e+02
  1.674e+02   4.229e-10   4.561e-10   7.846e-13  -1.845e-10   4.704e-14   1.674e+02
  1.674e+02   8.749e-09   8.781e-09   1.934e-13  -1.846e-10   1.201e-13   1.674e+02
  1.674e+02  -7.905e-09  -7.873e-09   7.110e-13  -1.844e-10   6.583e-14   1.674e+02
  1.674e+02   4.220e-10   4.538e-10   1.202e-13  -1.845e-10   1.193e-13   1.674e+02



TIME =   6.000e-01

Nodal Displacements

 Node          U1          U2          U3
    1   1.669e-15  -2.987e-16   9.293e-17
    2   3.000e+00   1.393e-13   1.570e-16
    3   3.000e+00  -5.000e-01  -1.351e-16
    4  -1.065e-17  -5.000e-01  -5.992e-17
    5  -1.602e-16   6.283e-17  -5.000e-01
    6   3.000e+00   4.427e-17  -5.000e-01
    7   3.000e+00  -5.000e-01  -5.000e-01
    8   0.000e+00  -5.000e-01  -5.000e-01

Element Stress

        S11        S22        S33        S12        S23        S13        vonMises
Element     1
  1.673e+02   1.361e-08   1.358e-08   5.274e-13  -4.707e-11  -2.114e-14   1.673e+02
  1.673e+02   4.726e-09   4.698e-09   1.335e-13  -4.721e-11   2.613e-14   1.673e+02
  1.673e+02   1.361e-08   1.358e-08   4.789e-13  -4.748e-11   1.588e-14   1.673e+02
  1.673e+02  -4.158e-09  -4.185e-09   8.643e-14  -4.762e-11   6.315e-14   1.673e+02
  1.673e+02   4.699e-09   4.729e-09   5.661e-13  -1.761e-10   3.990e-14   1.673e+02
  1.673e+02   4.697e-09   4.727e-09   1.441e-13  -1.762e-10   8.717e-14   1.673e+02
  1.673e+02  -4.185e-09  -4.156e-09   5.175e-13  -1.760e-10   4.065e-14   1.673e+02
  1.673e+02  -4.186e-09  -4.157e-09   9.705e-14  -1.762e-10   8.792e-14   1.673e+02



TIME =   6.500e-01

Nodal Displacements

 Node          U1          U2          U3
    1   2.365e-15  -3.015e-16   3.554e-17
    2   3.250e+00   1.342e-13   1.664e-16
    3   3.250e+00  -5.149e-01  -1.357e-16
    4  -1.070e-17  -5.149e-01  -6.486e-17
    5  -1.100e-16   6.158e-17  -5.149e-01
    6   3.250e+00   4.131e-17  -5.149e-01
    7   3.250e+00  -5.149e-01  -5.149e-01
    8   0.000e+00  -5.149e-01  -5.149e-01

Element Stress

        S11        S22        S33        S12        S23        S13        vonMises
Element     1
  1.672e+02  -1.351e-08  -1.354e-08   4.171e-13  -5.143e-11  -3.595e-14   1.672e+02
  1.672e+02   5.358e-09   5.330e-09   1.050e-13  -5.156e-11   9.563e-16   1.672e+02
  1.672e+02  -4.078e-09  -4.108e-09   3.806e-13  -5.162e-11   6.945e-15   1.672e+02
  1.672e+02  -4.083e-09  -4.111e-09   6.808e-14  -5.176e-11   4.372e-14   1.672e+02
  1.672e+02  -4.105e-09  -4.076e-09   4.850e-13  -1.930e-10   5.622e-14   1.672e+02
  1.672e+02   5.329e-09   5.359e-09   1.169e-13  -1.932e-10   9.313e-14   1.672e+02
  1.672e+02   5.331e-09   5.361e-09   4.485e-13  -1.934e-10   3.211e-14   1.672e+02
  1.672e+02  -4.111e-09  -4.083e-09   7.998e-14  -1.936e-10   8.659e-14   1.672e+02



TIME =   7.000e-01

Nodal Displacements

 Node          U1          U2          U3
    1   3.431e-15  -2.986e-16   3.642e-17
    2   3.500e+00   1.310e-13   1.636e-16
    3   3.500e+00  -5.286e-01  -1.418e-16
    4  -9.437e-18  -5.286e-01  -7.183e-17
    5  -1.230e-16   5.948e-17  -5.286e-01
    6   3.500e+00   4.032e-17  -5.286e-01
    7   3.500e+00  -5.286e-01  -5.286e-01
    8   0.000e+00  -5.286e-01  -5.286e-01

Element Stress

        S11        S22        S33        S12        S23        S13        vonMises
Element     1
  1.670e+02   1.680e-08   1.676e-08   3.180e-13  -5.706e-11  -6.469e-14   1.670e+02
  1.670e+02   1.679e-08   1.676e-08   7.913e-14  -5.767e-11  -3.642e-14   1.670e+02
  1.670e+02   1.679e-08   1.676e-08   2.889e-13  -5.762e-11  -4.727e-15   1.670e+02
  1.670e+02   6.795e-09   6.763e-09   5.019e-14  -5.823e-11   2.409e-14   1.670e+02
  1.670e+02  -1.322e-08  -1.319e-08   3.814e-13  -2.132e-10   2.476e-14   1.670e+02
  1.670e+02  -3.230e-09  -3.200e-09   1.047e-13  -2.135e-10   5.303e-14   1.670e+02
  1.670e+02  -1.322e-08  -1.319e-08   3.523e-13  -2.136e-10   3.329e-14   1.670e+02
  1.670e+02  -2.322e-08  -2.319e-08   7.571e-14  -2.139e-10   7.877e-14   1.670e+02



TIME =   7.500e-01

Nodal Displacements

 Node          U1          U2          U3
    1   3.611e-15  -2.956e-16   2.531e-17
    2   3.750e+00   1.138e-13   1.553e-16
    3   3.750e+00  -5.411e-01  -1.420e-16
    4  -9.087e-18  -5.411e-01  -7.325e-17
    5  -1.681e-16   5.661e-17  -5.411e-01
    6   3.750e+00   4.487e-17  -5.411e-01
    7   3.750e+00  -5.411e-01  -5.411e-01
    8   0.000e+00  -5.411e-01  -5.411e-01

Element Stress

        S11        S22        S33        S12        S23        S13        vonMises
Element     1
  1.668e+02   1.066e-08   1.064e-08   2.260e-13  -5.571e-11  -6.399e-14   1.668e+02
  1.668e+02   1.065e-08   1.063e-08   5.630e-14  -5.637e-11  -4.430e-14   1.668e+02
  1.668e+02  -1.044e-08  -1.047e-08   2.053e-13  -5.630e-11  -3.714e-15   1.668e+02
  1.668e+02  -2.099e-08  -2.102e-08   3.655e-14  -5.696e-11   1.656e-14   1.668e+02
  1.668e+02  -3.156e-08  -3.153e-08   2.934e-13  -2.081e-10   2.402e-14   1.668e+02
  1.668e+02  -1.047e-08  -1.044e-08   7.033e-14  -2.083e-10   4.371e-14   1.668e+02
  1.668e+02  -2.101e-08  -2.099e-08   2.727e-13  -2.081e-10   3.393e-14   1.668e+02
  1.668e+02  -1.047e-08  -1.044e-08   5.057e-14  -2.083e-10   5.420e-14   1.668e+02



TIME =   8.000e-01

Nodal Displacements

 Node          U1          U2          U3
    1   3.325e-15  -3.168e-16  -3.898e-18
    2   4.000e+00   1.334e-13   1.583e-16
    3   4.000e+00  -5.528e-01  -1.402e-16
    4  -8.172e-18  -5.528e-01  -7.736e-17
    5  -2.581e-16   5.517e-17  -5.528e-01
    6   4.000e+00   4.271e-17  -5.528e-01
    7   4.000e+00  -5.528e-01  -5.528e-01
    8   0.000e+00  -5.528e-01  -5.528e-01

Element Stress

        S11        S22        S33        S12        S23        S13        vonMises
Element     1
  1.666e+02  -1.032e-08  -1.036e-08   2.467e-13  -7.296e-11  -5.331e-14   1.666e+02
  1.666e+02  -1.034e-08  -1.037e-08   6.683e-14  -7.347e-11  -3.431e-14   1.666e+02
  1.666e+02   7.722e-10   7.394e-10   2.276e-13  -7.345e-11  -4.238e-15   1.666e+02
  1.666e+02  -2.144e-08  -2.147e-08   4.791e-14  -7.396e-11   1.491e-14   1.666e+02
  1.666e+02  -1.036e-08  -1.033e-08   3.063e-13  -2.735e-10   2.595e-14   1.666e+02
  1.666e+02   7.367e-10   7.685e-10   7.802e-14  -2.738e-10   4.495e-14   1.666e+02
  1.666e+02  -1.036e-08  -1.033e-08   2.873e-13  -2.739e-10   2.187e-14   1.666e+02
  1.666e+02  -1.037e-08  -1.034e-08   5.910e-14  -2.742e-10   4.102e-14   1.666e+02



TIME =   8.500e-01

Nodal Displacements

 Node          U1          U2          U3
    1   3.053e-15  -3.150e-16  -2.265e-17
    2   4.250e+00   1.301e-13   1.623e-16
    3   4.250e+00  -5.635e-01  -1.406e-16
    4  -6.513e-18  -5.635e-01  -7.880e-17
    5  -2.995e-16   5.294e-17  -5.635e-01
    6   4.250e+00   4.353e-17  -5.635e-01
    7   4.250e+00  -5.635e-01  -5.635e-01
    8   0.000e+00  -5.635e-01  -5.635e-01

Element Stress

        S11        S22        S33        S12        S23        S13        vonMises
Element     1
  1.664e+02  -9.005e-09  -9.039e-09   2.174e-13  -7.913e-11  -4.823e-14   1.664e+02
  1.664e+02  -9.011e-09  -9.047e-09   5.960e-14  -7.945e-11  -3.249e-14   1.664e+02
  1.664e+02  -9.010e-09  -9.046e-09   2.019e-13  -7.964e-11  -2.083e-15   1.664e+02
  1.664e+02  -9.015e-09  -9.049e-09   4.390e-14  -7.997e-11   1.354e-14   1.664e+02
  1.664e+02   1.428e-08   1.432e-08   2.844e-13  -2.974e-10   4.088e-14   1.664e+02
  1.664e+02   1.427e-08   1.431e-08   7.178e-14  -2.979e-10   5.662e-14   1.664e+02
  1.664e+02  -9.041e-09  -9.010e-09   2.689e-13  -2.982e-10   3.846e-14   1.664e+02
  1.664e+02  -9.048e-09  -9.015e-09   5.608e-14  -2.986e-10   3.990e-14   1.664e+02



TIME =   9.000e-01

Nodal Displacements

 Node          U1          U2          U3
    1   2.909e-15  -3.045e-16  -3.702e-17
    2   4.500e+00   1.265e-13   1.534e-16
    3   4.500e+00  -5.736e-01  -1.466e-16
    4  -7.192e-18  -5.736e-01  -7.657e-17
    5  -2.656e-16   4.893e-17  -5.736e-01
    6   4.500e+00   4.390e-17  -5.736e-01
    7   4.500e+00  -5.736e-01  -5.736e-01
    8   0.000e+00  -5.736e-01  -5.736e-01

Element Stress

        S11        S22        S33        S12        S23        S13        vonMises
Element     1
  1.662e+02  -1.574e-08  -1.577e-08   1.859e-13  -8.549e-11  -4.032e-14   1.662e+02
  1.662e+02  -1.575e-08  -1.578e-08   5.042e-14  -8.622e-11  -2.760e-14   1.662e+02
  1.662e+02  -1.574e-08  -1.578e-08   1.733e-13  -8.573e-11  -3.343e-15   1.662e+02
  1.662e+02  -2.796e-08  -2.800e-08   3.751e-14  -8.646e-11   9.530e-15   1.662e+02
  1.662e+02  -2.799e-08  -2.795e-08   2.502e-13  -3.212e-10   4.081e-14   1.662e+02
  1.662e+02  -1.578e-08  -1.575e-08   6.688e-14  -3.216e-10   5.354e-14   1.662e+02
  1.662e+02  -3.563e-09  -3.527e-09   2.376e-13  -3.216e-10   2.662e-14   1.662e+02
  1.662e+02  -3.569e-09  -3.534e-09   5.397e-14  -3.220e-10   3.949e-14   1.662e+02



TIME =   9.500e-01

Nodal Displacements

 Node          U1          U2          U3
    1   2.302e-15  -3.062e-16  -1.506e-17
    2   4.750e+00   1.381e-13   1.564e-16
    3   4.750e+00  -5.829e-01  -1.495e-16
    4  -9.823e-18  -5.829e-01  -6.884e-17
    5  -3.123e-16   4.681e-17  -5.829e-01
    6   4.750e+00   4.234e-17  -5.829e-01
    7   4.750e+00  -5.829e-01  -5.829e-01
    8   0.000e+00  -5.829e-01  -5.829e-01

Element Stress

        S11        S22        S33        S12        S23        S13        vonMises
Element     1
  1.661e+02   4.233e-09   4.193e-09   1.951e-13  -1.035e-10  -2.527e-14   1.661e+02
  1.661e+02  -8.547e-09  -8.586e-09   5.238e-14  -1.041e-10  -1.361e-14   1.661e+02
  1.661e+02  -8.546e-09  -8.587e-09   1.833e-13  -1.042e-10  -7.806e-16   1.661e+02
  1.661e+02  -2.132e-08  -2.135e-08   4.089e-14  -1.047e-10   1.099e-14   1.661e+02
  1.661e+02   4.193e-09   4.233e-09   2.464e-13  -3.878e-10   4.459e-14   1.661e+02
  1.661e+02  -8.587e-09  -8.546e-09   6.950e-14  -3.883e-10   5.624e-14   1.661e+02
  1.661e+02   4.187e-09   4.226e-09   2.347e-13  -3.877e-10   2.924e-14   1.661e+02
  1.661e+02  -8.584e-09  -8.547e-09   5.801e-14  -3.882e-10   4.100e-14   1.661e+02



TIME =   1.000e+00

Nodal Displacements

 Node          U1          U2          U3
    1   2.020e-15  -3.170e-16  -1.530e-17
    2   5.000e+00   1.464e-13   1.551e-16
    3   5.000e+00  -5.917e-01  -1.482e-16
    4  -1.037e-17  -5.917e-01  -6.974e-17
    5  -2.376e-16   4.364e-17  -5.917e-01
    6   5.000e+00   4.091e-17  -5.917e-01
    7   5.000e+00  -5.917e-01  -5.917e-01
    8   0.000e+00  -5.917e-01  -5.917e-01

Element Stress

        S11        S22        S33        S12        S23        S13        vonMises
Element     1
  1.659e+02  -7.694e-10  -8.095e-10   1.878e-13  -1.207e-10  -2.776e-14   1.659e+02
  1.659e+02   1.255e-08   1.251e-08   5.265e-14  -1.210e-10  -1.731e-14   1.659e+02
  1.659e+02  -7.767e-10  -8.204e-10   1.777e-13  -1.212e-10   1.401e-15   1.659e+02
  1.659e+02  -2.743e-08  -2.747e-08   4.282e-14  -1.215e-10   1.171e-14   1.659e+02
  1.659e+02  -8.131e-10  -7.676e-10   2.404e-13  -4.530e-10   4.490e-14   1.659e+02
  1.659e+02   3.916e-08   3.920e-08   7.038e-14  -4.536e-10   5.535e-14   1.659e+02
  1.659e+02   1.251e-08   1.255e-08   2.303e-13  -4.530e-10   3.147e-14   1.659e+02
  1.659e+02   2.583e-08   2.588e-08   6.055e-14  -4.537e-10   4.177e-14   1.659e+02

